extern String $std::string$;

interface IPasswordManager {
	in bool VerifyPassword(String s);
	
	out void PasswordEntered(String s);
	
	behaviour {
		on VerifyPassword: { reply(true); }
		on VerifyPassword: { reply(false); }
		on optional: PasswordEntered;
	}
}
